# Objective value = 7.0509100000000017e+03
I_0_0 2318
I_0_1 2917
I_0_2 2429
I_0_3 3.4279999999999991e+03
I_1_0 22
I_1_1 1.1000000000000039e+01
I_1_2 2.2000000000000007e+01
I_1_3 1.1000000000000009e+01
I_2_0 13
I_2_1 0
I_2_2 13
I_2_3 9.0205620750793969e-16
I_3_0 36
I_3_1 18
I_3_2 36
I_3_3 18
I_4_0 42
I_4_1 21
I_4_2 4.1999999999999893e+01
I_4_3 2.0999999999999609e+01
I_5_0 23
I_5_1 0
I_5_2 23
I_5_3 3.2876479316712448e-14
I_6_0 29
I_6_1 0
I_6_2 29
I_6_3 -4.18554080283684e-14
I_7_0 64
I_7_1 32
I_7_2 64
I_7_3 32
I_8_0 39
I_8_1 0
I_8_2 39
I_8_3 0
I_9_0 106
I_9_1 106
I_9_2 5.2999999999999929e+01
I_9_3 -7.37188088351104e-14
I_10_0 106
I_10_1 53
I_10_2 1.0600000000000003e+02
I_10_3 5.3000000000000675e+01
I_11_0 54
I_11_1 54
I_11_2 54
I_11_3 2.4805157927687560e-13
I_12_0 57
I_12_1 4.7462034302725442e-15
I_12_2 57
I_12_3 0
I_13_0 116
I_13_1 116
I_13_2 58
I_13_3 0
I_14_0 65
I_14_1 0
I_14_2 65
I_14_3 0
I_15_0 68
I_15_1 68
I_15_2 68
I_15_3 1.2079226507921703e-13
I_16_0 69
I_16_1 69
I_16_2 69
I_16_3 9.8629437950137344e-14
I_17_0 148
I_17_1 74
I_17_2 1.4799999999999972e+02
I_17_3 7.3999999999999716e+01
I_18_0 79
I_18_1 -2.1926904736346842e-15
I_18_2 7.8999999999999972e+01
I_18_3 1.6445178552260131e-14
I_19_0 85
I_19_1 0
I_19_2 85
I_19_3 0
I_20_0 98
I_20_1 98
I_20_2 98
I_20_3 0
q_1_0 3.8927194800919551e-14
q_1_1 22
q_1_2 0
q_2_0 0
q_2_1 26
q_2_2 9.0205620750793969e-16
q_3_0 0
q_3_1 36
q_3_2 0
q_4_0 0
q_4_1 4.1999999999999886e+01
q_4_2 -2.8210472839964359e-13
q_5_0 0
q_5_1 46
q_5_2 3.2876479316712448e-14
q_6_0 0
q_6_1 58
q_6_2 -4.18554080283684e-14
q_7_0 0
q_7_1 64
q_7_2 0
q_8_0 0
q_8_1 78
q_8_2 0
q_9_0 5.2999999999999993e+01
q_9_1 -7.4606987254810520e-14
q_9_2 0
q_10_0 0
q_10_1 106
q_10_2 6.5369931689929217e-13
q_11_0 54
q_11_1 54
q_11_2 2.4805157927687560e-13
q_12_0 4.7462034302725442e-15
q_12_1 114
q_12_2 0
q_13_0 58
q_13_1 0
q_13_2 0
q_14_0 0
q_14_1 130
q_14_2 0
q_15_0 68
q_15_1 68
q_15_2 1.2079226507921703e-13
q_16_0 69
q_16_1 69
q_16_2 9.8629437950137344e-14
q_17_0 0
q_17_1 148
q_17_2 -3.5527136788005009e-15
q_18_0 -2.1926904736346842e-15
q_18_1 1.5799999999999997e+02
q_18_2 4.4866887982664139e-14
q_19_0 0
q_19_1 170
q_19_2 0
q_20_0 98
q_20_1 98
q_20_2 0
y_0_0 1
y_0_1 1
y_0_2 0
y_1_0 3.5388358909926865e-15
y_1_1 1
y_1_2 0
y_2_0 0
y_2_1 1
y_2_2 6.9388939039072284e-17
y_3_0 0
y_3_1 1
y_3_2 0
y_4_0 0
y_4_1 9.9999999999997924e-01
y_4_2 0
y_5_0 0
y_5_1 1
y_5_2 1.4294121442048890e-15
y_6_0 0
y_6_1 1
y_6_2 -1.4432899320127035e-15
y_7_0 0
y_7_1 1
y_7_2 0
y_8_0 0
y_8_1 1
y_8_2 0
y_9_0 9.9999999999999989e-01
y_9_1 -6.9388939039072284e-16
y_9_2 0
y_10_0 0
y_10_1 1
y_10_2 4.2188474935755949e-15
y_11_0 1
y_11_1 1
y_11_2 4.5935477643865852e-15
y_12_0 8.3266726846886741e-17
y_12_1 1
y_12_2 0
y_13_0 1
y_13_1 0
y_13_2 0
y_14_0 0
y_14_1 1
y_14_2 0
y_15_0 1
y_15_1 1
y_15_2 1.7763568394002505e-15
y_16_0 1
y_16_1 1
y_16_2 1.4294121442048890e-15
y_17_0 0
y_17_1 1
y_17_2 0
y_18_0 -2.7755575615628914e-17
y_18_1 9.9999999999999967e-01
y_18_2 2.0816681711721685e-16
y_19_0 0
y_19_1 1
y_19_2 0
y_20_0 1
y_20_1 1
y_20_2 0
x_0_1_0 7.0776717819853729e-15
x_0_1_1 1.0000000000000036e+00
x_0_1_2 0
x_0_2_0 0
x_0_2_1 0
x_0_2_2 0
x_0_3_0 0
x_0_3_1 0
x_0_3_2 0
x_0_4_0 0
x_0_4_1 0
x_0_4_2 0
x_0_5_0 0
x_0_5_1 0
x_0_5_2 0
x_0_6_0 0
x_0_6_1 0
x_0_6_2 0
x_0_7_0 0
x_0_7_1 0
x_0_7_2 0
x_0_8_0 0
x_0_8_1 9.9999999999999911e-01
x_0_8_2 0
x_0_9_0 0
x_0_9_1 0
x_0_9_2 0
x_0_10_0 0
x_0_10_1 0
x_0_10_2 0
x_0_11_0 0
x_0_11_1 0
x_0_11_2 0
x_0_12_0 0
x_0_12_1 0
x_0_12_2 0
x_0_13_0 9.9999999999999956e-01
x_0_13_1 0
x_0_13_2 0
x_0_14_0 0
x_0_14_1 2.7061686225238191e-16
x_0_14_2 0
x_0_15_0 0
x_0_15_1 0
x_0_15_2 0
x_0_16_0 9.9999999999999434e-01
x_0_16_1 -1.6306400674181987e-16
x_0_16_2 0
x_0_17_0 0
x_0_17_1 0
x_0_17_2 0
x_0_18_0 0
x_0_18_1 0
x_0_18_2 0
x_0_19_0 0
x_0_19_1 0
x_0_19_2 0
x_0_20_0 0
x_0_20_1 0
x_0_20_2 0
x_1_2_0 0
x_1_2_1 0
x_1_2_2 0
x_1_3_0 0
x_1_3_1 0
x_1_3_2 0
x_1_4_0 0
x_1_4_1 0
x_1_4_2 0
x_1_5_0 0
x_1_5_1 -1.0200174038743626e-15
x_1_5_2 0
x_1_6_0 0
x_1_6_1 0
x_1_6_2 0
x_1_7_0 0
x_1_7_1 0
x_1_7_2 0
x_1_8_0 0
x_1_8_1 0
x_1_8_2 0
x_1_9_0 0
x_1_9_1 0
x_1_9_2 0
x_1_10_0 0
x_1_10_1 0
x_1_10_2 0
x_1_11_0 0
x_1_11_1 0
x_1_11_2 0
x_1_12_0 0
x_1_12_1 0
x_1_12_2 0
x_1_13_0 0
x_1_13_1 0
x_1_13_2 0
x_1_14_0 0
x_1_14_1 1
x_1_14_2 0
x_1_15_0 0
x_1_15_1 0
x_1_15_2 0
x_1_16_0 0
x_1_16_1 0
x_1_16_2 0
x_1_17_0 0
x_1_17_1 0
x_1_17_2 0
x_1_18_0 0
x_1_18_1 0
x_1_18_2 0
x_1_19_0 0
x_1_19_1 1.6306400674181987e-16
x_1_19_2 0
x_1_20_0 0
x_1_20_1 0
x_1_20_2 0
x_2_3_0 0
x_2_3_1 0
x_2_3_2 0
x_2_4_0 0
x_2_4_1 0
x_2_4_2 0
x_2_5_0 0
x_2_5_1 -1.0685896612017132e-15
x_2_5_2 0
x_2_6_0 0
x_2_6_1 0
x_2_6_2 0
x_2_7_0 0
x_2_7_1 0
x_2_7_2 0
x_2_8_0 0
x_2_8_1 0
x_2_8_2 0
x_2_9_0 0
x_2_9_1 0
x_2_9_2 0
x_2_10_0 0
x_2_10_1 0
x_2_10_2 0
x_2_11_0 0
x_2_11_1 0
x_2_11_2 0
x_2_12_0 0
x_2_12_1 0
x_2_12_2 0
x_2_13_0 0
x_2_13_1 0
x_2_13_2 0
x_2_14_0 0
x_2_14_1 0
x_2_14_2 0
x_2_15_0 0
x_2_15_1 0
x_2_15_2 0
x_2_16_0 0
x_2_16_1 0
x_2_16_2 0
x_2_17_0 0
x_2_17_1 1.0000000000000022e+00
x_2_17_2 1.3877787807814457e-16
x_2_18_0 0
x_2_18_1 0
x_2_18_2 0
x_2_19_0 0
x_2_19_1 9.9999999999999789e-01
x_2_19_2 0
x_2_20_0 0
x_2_20_1 0
x_2_20_2 0
x_3_4_0 0
x_3_4_1 -1.7902346272080649e-15
x_3_4_2 2.8310687127941492e-15
x_3_5_0 0
x_3_5_1 0
x_3_5_2 0
x_3_6_0 0
x_3_6_1 1.0000000000000018e+00
x_3_6_2 -1.3600232051658168e-15
x_3_7_0 0
x_3_7_1 0
x_3_7_2 0
x_3_8_0 0
x_3_8_1 0
x_3_8_2 0
x_3_9_0 -8.3266726846886741e-17
x_3_9_1 0
x_3_9_2 0
x_3_10_0 0
x_3_10_1 0
x_3_10_2 1.6958656701149266e-14
x_3_11_0 0
x_3_11_1 0
x_3_11_2 0
x_3_12_0 1.6653345369377348e-16
x_3_12_1 1
x_3_12_2 0
x_3_13_0 0
x_3_13_1 0
x_3_13_2 0
x_3_14_0 0
x_3_14_1 0
x_3_14_2 0
x_3_15_0 0
x_3_15_1 0
x_3_15_2 0
x_3_16_0 0
x_3_16_1 0
x_3_16_2 0
x_3_17_0 0
x_3_17_1 0
x_3_17_2 0
x_3_18_0 0
x_3_18_1 0
x_3_18_2 0
x_3_19_0 0
x_3_19_1 0
x_3_19_2 0
x_3_20_0 0
x_3_20_1 0
x_3_20_2 -2.8033131371785203e-15
x_4_5_0 0
x_4_5_1 0
x_4_5_2 0
x_4_6_0 0
x_4_6_1 9.9999999999999467e-01
x_4_6_2 0
x_4_7_0 0
x_4_7_1 0
x_4_7_2 0
x_4_8_0 0
x_4_8_1 0
x_4_8_2 0
x_4_9_0 1.2490009027033011e-16
x_4_9_1 0
x_4_9_2 0
x_4_10_0 0
x_4_10_1 0
x_4_10_2 0
x_4_11_0 0
x_4_11_1 0
x_4_11_2 4.5657921887709563e-15
x_4_12_0 0
x_4_12_1 0
x_4_12_2 -2.3592239273284576e-15
x_4_13_0 -1.8041124150158794e-16
x_4_13_1 0
x_4_13_2 0
x_4_14_0 0
x_4_14_1 0
x_4_14_2 0
x_4_15_0 0
x_4_15_1 0
x_4_15_2 0
x_4_16_0 0
x_4_16_1 0
x_4_16_2 0
x_4_17_0 0
x_4_17_1 0
x_4_17_2 0
x_4_18_0 0
x_4_18_1 0
x_4_18_2 0
x_4_19_0 0
x_4_19_1 0
x_4_19_2 0
x_4_20_0 0
x_4_20_1 9.9999999999999933e-01
x_4_20_2 0
x_5_6_0 0
x_5_6_1 0
x_5_6_2 0
x_5_7_0 0
x_5_7_1 0
x_5_7_2 0
x_5_8_0 0
x_5_8_1 0
x_5_8_2 0
x_5_9_0 0
x_5_9_1 0
x_5_9_2 0
x_5_10_0 0
x_5_10_1 0
x_5_10_2 0
x_5_11_0 0
x_5_11_1 0
x_5_11_2 0
x_5_12_0 0
x_5_12_1 0
x_5_12_2 0
x_5_13_0 0
x_5_13_1 0
x_5_13_2 0
x_5_14_0 0
x_5_14_1 0
x_5_14_2 0
x_5_15_0 0
x_5_15_1 1.0000000000000004e+00
x_5_15_2 1.4294121442048890e-15
x_5_16_0 0
x_5_16_1 1
x_5_16_2 1.4294121442048890e-15
x_5_17_0 0
x_5_17_1 0
x_5_17_2 0
x_5_18_0 0
x_5_18_1 0
x_5_18_2 0
x_5_19_0 0
x_5_19_1 0
x_5_19_2 0
x_5_20_0 0
x_5_20_1 0
x_5_20_2 0
x_6_7_0 0
x_6_7_1 0
x_6_7_2 0
x_6_8_0 0
x_6_8_1 0
x_6_8_2 0
x_6_9_0 0
x_6_9_1 0
x_6_9_2 0
x_6_10_0 0
x_6_10_1 0
x_6_10_2 0
x_6_11_0 0
x_6_11_1 -4.4408920985006262e-16
x_6_11_2 0
x_6_12_0 0
x_6_12_1 0
x_6_12_2 0
x_6_13_0 0
x_6_13_1 0
x_6_13_2 0
x_6_14_0 0
x_6_14_1 0
x_6_14_2 0
x_6_15_0 0
x_6_15_1 0
x_6_15_2 0
x_6_16_0 0
x_6_16_1 0
x_6_16_2 0
x_6_17_0 0
x_6_17_1 0
x_6_17_2 0
x_6_18_0 0
x_6_18_1 0
x_6_18_2 0
x_6_19_0 0
x_6_19_1 0
x_6_19_2 0
x_6_20_0 0
x_6_20_1 0
x_6_20_2 0
x_7_8_0 0
x_7_8_1 0
x_7_8_2 0
x_7_9_0 0
x_7_9_1 0
x_7_9_2 0
x_7_10_0 0
x_7_10_1 0
x_7_10_2 0
x_7_11_0 0
x_7_11_1 0
x_7_11_2 0
x_7_12_0 0
x_7_12_1 0
x_7_12_2 0
x_7_13_0 0
x_7_13_1 0
x_7_13_2 0
x_7_14_0 0
x_7_14_1 0
x_7_14_2 0
x_7_15_0 0
x_7_15_1 0
x_7_15_2 0
x_7_16_0 0
x_7_16_1 0
x_7_16_2 0
x_7_17_0 2.7755575615628914e-17
x_7_17_1 9.9999999999999989e-01
x_7_17_2 -2.7755575615628914e-16
x_7_18_0 0
x_7_18_1 1
x_7_18_2 2.7755575615628914e-16
x_7_19_0 0
x_7_19_1 2.0816681711721685e-16
x_7_19_2 0
x_7_20_0 0
x_7_20_1 0
x_7_20_2 0
x_8_9_0 0
x_8_9_1 0
x_8_9_2 0
x_8_10_0 0
x_8_10_1 0
x_8_10_2 0
x_8_11_0 0
x_8_11_1 0
x_8_11_2 0
x_8_12_0 0
x_8_12_1 0
x_8_12_2 0
x_8_13_0 0
x_8_13_1 0
x_8_13_2 0
x_8_14_0 0
x_8_14_1 0
x_8_14_2 0
x_8_15_0 0
x_8_15_1 0
x_8_15_2 0
x_8_16_0 0
x_8_16_1 1.0000000000000009e+00
x_8_16_2 0
x_8_17_0 0
x_8_17_1 0
x_8_17_2 0
x_8_18_0 0
x_8_18_1 0
x_8_18_2 0
x_8_19_0 0
x_8_19_1 0
x_8_19_2 0
x_8_20_0 0
x_8_20_1 0
x_8_20_2 0
x_9_10_0 0
x_9_10_1 0
x_9_10_2 0
x_9_11_0 0
x_9_11_1 -3.0531133177191805e-16
x_9_11_2 2.7755575615628914e-17
x_9_12_0 0
x_9_12_1 0
x_9_12_2 0
x_9_13_0 0
x_9_13_1 0
x_9_13_2 0
x_9_14_0 0
x_9_14_1 0
x_9_14_2 0
x_9_15_0 9.9999999999999989e-01
x_9_15_1 3.3306690738754696e-16
x_9_15_2 0
x_9_16_0 0
x_9_16_1 0
x_9_16_2 0
x_9_17_0 0
x_9_17_1 0
x_9_17_2 0
x_9_18_0 0
x_9_18_1 0
x_9_18_2 0
x_9_19_0 0
x_9_19_1 0
x_9_19_2 0
x_9_20_0 1
x_9_20_1 -6.9388939039072284e-16
x_9_20_2 0
x_10_11_0 0
x_10_11_1 0
x_10_11_2 0
x_10_12_0 0
x_10_12_1 1
x_10_12_2 4.2188474935755949e-15
x_10_13_0 0
x_10_13_1 0
x_10_13_2 0
x_10_14_0 0
x_10_14_1 0
x_10_14_2 0
x_10_15_0 0
x_10_15_1 0
x_10_15_2 0
x_10_16_0 0
x_10_16_1 0
x_10_16_2 0
x_10_17_0 0
x_10_17_1 -9.71445146547012e-17
x_10_17_2 0
x_10_18_0 0
x_10_18_1 9.9999999999999889e-01
x_10_18_2 2.7755575615628914e-17
x_10_19_0 0
x_10_19_1 0
x_10_19_2 0
x_10_20_0 0
x_10_20_1 0
x_10_20_2 0
x_11_12_0 0
x_11_12_1 0
x_11_12_2 0
x_11_13_0 1
x_11_13_1 0
x_11_13_2 0
x_11_14_0 0
x_11_14_1 0
x_11_14_2 0
x_11_15_0 0
x_11_15_1 9.9999999999999978e-01
x_11_15_2 0
x_11_16_0 0
x_11_16_1 0
x_11_16_2 0
x_11_17_0 0
x_11_17_1 0
x_11_17_2 0
x_11_18_0 0
x_11_18_1 0
x_11_18_2 0
x_11_19_0 0
x_11_19_1 0
x_11_19_2 0
x_11_20_0 1
x_11_20_1 1
x_11_20_2 4.5935477643865852e-15
x_12_13_0 0
x_12_13_1 0
x_12_13_2 0
x_12_14_0 0
x_12_14_1 0
x_12_14_2 0
x_12_15_0 0
x_12_15_1 0
x_12_15_2 0
x_12_16_0 0
x_12_16_1 0
x_12_16_2 0
x_12_17_0 0
x_12_17_1 0
x_12_17_2 0
x_12_18_0 0
x_12_18_1 0
x_12_18_2 0
x_12_19_0 0
x_12_19_1 0
x_12_19_2 0
x_12_20_0 0
x_12_20_1 0
x_12_20_2 -1.7902346272080649e-15
x_13_14_0 0
x_13_14_1 0
x_13_14_2 0
x_13_15_0 -7.1886940844478886e-15
x_13_15_1 0
x_13_15_2 0
x_13_16_0 7.2025718722557031e-15
x_13_16_1 0
x_13_16_2 0
x_13_17_0 0
x_13_17_1 0
x_13_17_2 0
x_13_18_0 0
x_13_18_1 0
x_13_18_2 0
x_13_19_0 0
x_13_19_1 0
x_13_19_2 0
x_13_20_0 7.6327832942979512e-16
x_13_20_1 0
x_13_20_2 0
x_14_15_0 0
x_14_15_1 0
x_14_15_2 0
x_14_16_0 0
x_14_16_1 0
x_14_16_2 0
x_14_17_0 0
x_14_17_1 0
x_14_17_2 0
x_14_18_0 0
x_14_18_1 0
x_14_18_2 0
x_14_19_0 0
x_14_19_1 1.0000000000000011e+00
x_14_19_2 0
x_14_20_0 0
x_14_20_1 0
x_14_20_2 0
x_15_16_0 9.9999999999999845e-01
x_15_16_1 -2.1094237467877974e-15
x_15_16_2 1.4432899320127035e-15
x_15_17_0 0
x_15_17_1 0
x_15_17_2 0
x_15_18_0 -1.1102230246251565e-16
x_15_18_1 0
x_15_18_2 0
x_15_19_0 0
x_15_19_1 0
x_15_19_2 0
x_15_20_0 0
x_15_20_1 0
x_15_20_2 0
x_16_17_0 0
x_16_17_1 0
x_16_17_2 0
x_16_18_0 0
x_16_18_1 0
x_16_18_2 0
x_16_19_0 0
x_16_19_1 0
x_16_19_2 0
x_16_20_0 0
x_16_20_1 0
x_16_20_2 0
x_17_18_0 -2.7755575615628914e-17
x_17_18_1 0
x_17_18_2 1.9428902930940239e-16
x_17_19_0 0
x_17_19_1 0
x_17_19_2 0
x_17_20_0 8.3266726846886741e-17
x_17_20_1 0
x_17_20_2 0
x_18_19_0 0
x_18_19_1 -3.95516952522712e-16
x_18_19_2 0
x_18_20_0 -1.3877787807814457e-16
x_18_20_1 0
x_18_20_2 0
x_19_20_0 0
x_19_20_1 0
x_19_20_2 0
